glpk/models/path2.lp
\* Problem: Path 2 - Power *\

Maximize
 z: + x81

Subject To
 c1: + x81 - x14 - x13 - x12 = 0
 c2: - x26 - x25 + x12 = 0
 c3: - x36 - x35 + x13 = 0
 c4: - x58 - x47 + x14 = 0
 c5: + x65 - x58 + x35 + x25 = 0
 c6: - x68 - x67 - x65 + x46 + x36 + x26 = 0
 c7: - x78 + x67 + x47 = 0
 c8: - x81 + x78 + x68 + x58 = 0

Bounds
 0 <= x12 <= 400
 0 <= x13 <= 950
 0 <= x14 <= 800
 0 <= x25 <= 1800
 0 <= x26 <= 900
 0 <= x35 <= 1100
 0 <= x36 <= 600
 0 <= x46 <= 600
 0 <= x47 <= 1200
 0 <= x58 <= 400
 0 <= x65 <= 900
 0 <= x67 <= 1000
 0 <= x68 <= 1300
 0 <= x78 <= 600

Generals
 x12
 x13
 x14
 x25
 x26
 x35
 x36
 x46
 x47
 x58
 x65
 x67
 x68
 x78
 x81

End
