glpk/solutions/path2.sol
Path 2 - Power
z = 2150.0
x12 = 400.0
x13 = 950.0
x14 = 800.0
x25 = 50.0
x26 = 350.0
x35 = 350.0
x36 = 600.0
x46 = 400.0
x47 = 400.0
x58 = 400.0
x65 = 0.0
x67 = 50.0
x68 = 1300.0
x78 = 450.0
x81 = 2150.0
